Optimize a model with 3711 rows, 44064 columns and 134095 nonzeros
Model has 1190 quadratic objective terms
Model has 1225 quadratic constraints
Coefficient statistics:
  Matrix range    [1e+00, 9e+02]
  Objective range [0e+00, 0e+00]
  Bounds range    [1e+00, 3e+01]
  RHS range       [1e+00, 7e+03]
Presolve removed 139 rows and 3401 columns
Presolve time: 0.19s
Presolved: 158983 rows, 118351 columns, 586550 nonzeros
Variable types: 78878 continuous, 39473 integer (39439 binary)

Root simplex log...

Iteration    Objective       Primal Inf.    Dual Inf.      Time
   31631    6.3270656e-04   8.969729e+03   0.000000e+00      5s
   34711    6.8173239e-04   3.749452e+04   0.000000e+00     10s
   36911    7.2878743e-04   4.206686e+04   0.000000e+00     15s
   39331    7.7472433e-04   2.631442e+04   0.000000e+00     20s
   42191    8.1960606e-04   1.825821e+04   0.000000e+00     25s
   44831    8.5452850e-04   2.762313e+04   0.000000e+00     30s
   48131    8.9312928e-04   1.525313e+04   0.000000e+00     35s
   51431    9.3685448e-04   1.271076e+04   0.000000e+00     40s
   54511    9.7768445e-04   1.014393e+05   0.000000e+00     45s
   57371    1.0031019e-03   3.164052e+04   0.000000e+00     50s
   60231    1.0236102e-03   1.060234e+04   0.000000e+00     55s
   62871    1.0633343e-03   4.948049e+04   0.000000e+00     60s
   65291    1.0831755e-03   2.420983e+03   0.000000e+00     65s
   67711    1.0934892e-03   1.749842e+03   0.000000e+00     70s
   70351    1.1025982e-03   7.276402e+02   0.000000e+00     75s
   72991    1.1043569e-03   3.614085e-01   0.000000e+00     80s
   73049    0.0000000e+00   0.000000e+00   0.000000e+00     80s

Root relaxation: objective 0.000000e+00, 73049 iterations, 79.61 seconds
Total elapsed time = 90.15s
Total elapsed time = 176.82s
Total elapsed time = 201.86s

    Nodes    |    Current Node    |     Objective Bounds      |     Work
 Expl Unexpl |  Obj  Depth IntInf | Incumbent    BestBd   Gap | It/Node Time

     0     0    0.00000    0  138          -    0.00000      -     -  211s
     0     0    0.00000    0  703          -    0.00000      -     -  462s
     0     0    0.00000    0  737          -    0.00000      -     -  688s
     0     0    0.00000    0  842          -    0.00000      -     - 1467s
H    0     0                    2.000026e+08    0.00000   100%     - 1469s
     0     0    0.00000    0  913 2.0000e+08    0.00000   100%     - 1553s
     0     0    0.00000    0  945 2.0000e+08    0.00000   100%     - 2967s
     0     0    0.00000    0  939 2.0000e+08    0.00000   100%     - 3071s
     0     0    0.00000    0  172 2.0000e+08    0.00000   100%     - 4991s
H    0     0                    1.000025e+08    0.00000   100%     - 5042s
     0     0    0.00000    0  334 1.0000e+08    0.00000   100%     - 5068s
     0     0    0.00000    0  456 1.0000e+08    0.00000   100%     - 6318s
     0     0    0.00000    0  496 1.0000e+08    0.00000   100%     - 6402s
     0     0    6.50000    0  575 1.0000e+08    6.50000   100%     - 7812s
     0     0    6.50000    0  528 1.0000e+08    6.50000   100%     - 7884s
     0     0    6.50000    0  713 1.0000e+08    6.50000   100%     - 8130s
     0     0    6.50000    0  496 1.0000e+08    6.50000   100%     - 8283s
     0     0    6.50000    0  674 1.0000e+08    6.50000   100%     - 9679s
H    0     0                    1.000021e+08    6.50000   100%     - 9682s
     0     0    6.50000    0  579 1.0000e+08    6.50000   100%     - 9807s
     0     0    6.50000    0  549 1.0000e+08    6.50000   100%     - 11190s
     0     0    6.50000    0  515 1.0000e+08    6.50000   100%     - 11262s
     0     0    6.50000    0  476 1.0000e+08    6.50000   100%     - 12616s
     0     0    6.50000    0  481 1.0000e+08    6.50000   100%     - 12677s
     0     0    6.50000    0  531 1.0000e+08    6.50000   100%     - 14009s
     0     0    6.50000    0  516 1.0000e+08    6.50000   100%     - 15188s
     0     2    6.50000    0   96 1.0000e+08    6.50000   100%     - 20444s
     1     3    6.50000    1   90 1.0000e+08    6.50000   100% 530334 20445s
     3     5   11.72857    2 1003 1.0000e+08    6.50000   100% 231135 20681s
     4     5    6.50000    3  995 1.0000e+08    6.50000   100% 196436 21110s
     5     8   13.53125    3  560 1.0000e+08    6.50000   100% 173644 21446s
     7     8    6.50000    4  793 1.0000e+08    6.50000   100% 137988 22074s
     9    14   10.95714    4  795 1.0000e+08    6.50000   100% 135850 22861s
    13    16    6.50000    5  795 1.0000e+08    6.50000   100% 111826 24360s
    17    22    9.28125    5 1080 1.0000e+08    6.50000   100% 115280 26264s
    21    21    6.50000    6  664 1.0000e+08    6.50000   100% 122241 27481s
    34    36    6.50000    7  840 1.0000e+08    6.50000   100% 86434 28960s
    42    41    6.50000    8  633 1.0000e+08    6.50000   100% 79821 30081s
    52    54   10.17647    9 1185 1.0000e+08    6.50000   100% 71720 30773s
    56    56    6.50000   10  485 1.0000e+08    6.50000   100% 72399 31595s
    63    67    6.50000   12  335 1.0000e+08    6.50000   100% 69697 32624s
    78    78    6.50000   17 1227 1.0000e+08    6.50000   100% 63478 33690s
    88    90    6.50000   18 1042 1.0000e+08    6.50000   100% 60727 34473s
    92    91   13.16667   18 1268 1.0000e+08    6.50000   100% 62322 35529s
   104   104    6.50000   19  916 1.0000e+08    6.50000   100% 58578 37267s
   115   118   10.12857   21 1025 1.0000e+08    6.50000   100% 58636 38545s
   124   124   13.41176   22  651 1.0000e+08    6.50000   100% 58390 39556s
   141   144    6.50000   31  915 1.0000e+08    6.50000   100% 56170 40382s
   146   144    9.52857   32  797 1.0000e+08    6.50000   100% 57468 41641s
   162   165    6.50000   37  168 1.0000e+08    6.50000   100% 55498 43049s
   175   176    6.50000   41  301 1.0000e+08    6.50000   100% 54870 43967s
   187   188   11.53030   44  875 1.0000e+08    6.50000   100% 54966 45617s
   201   203    6.50000   45  654 1.0000e+08    6.50000   100% 54654 46740s
   210   207    8.47059   48  959 1.0000e+08    6.50000   100% 55332 48086s
   217   221   10.07143   49 1219 1.0000e+08    6.50000   100% 55574 49800s
   232   232    8.27143   52  705 1.0000e+08    6.50000   100% 55245 51275s
   260   260   10.70000   63 1284 1.0000e+08    6.50000   100% 53183 52919s
   276   274    6.50000   64  898 1.0000e+08    6.50000   100% 51991 57885s
   302   300    6.50000   69  722 1.0000e+08    6.50000   100% 49681 61154s
   319   321   10.53030   71  475 1.0000e+08    6.50000   100% 50917 63389s
   336   334    6.50000   72  718 1.0000e+08    6.50000   100% 51431 65387s
H  355   356                    1.000019e+08    6.50000   100% 51134 67159s
   374   369    6.50000   82  463 1.0000e+08    6.50000   100% 50761 70081s
   396   397   14.16471   77 1018 1.0000e+08    6.50000   100% 51114 79999s

Cutting planes:
  Learned: 1
  Gomory: 5
  Cover: 142
  Implied bound: 776
  Clique: 9
  MIR: 432
  Flow cover: 502

Explored 417 nodes (24183071 simplex iterations) in 79999.92 seconds
Thread count was 8 (of 8 available processors)

Solve interrupted
Best objective 1.000019095000e+08, best bound 6.500000000000e+00, gap 100.0000%

Solution:
0 32 28 10 34 8 30 24 11 33 3 17 18 6 25 16 1 27 
1 0 0 0 0 0 0 0 0 0 0 0 0 0 0 0 0 0 

Cost: 1.00002e+08
Lower Bound: 6.5
